NAME : instances/clustered-mixed-tsp/instance-14.tsp
COMMENT : No Comment
TYPE : TSP
DIMENSION: 47
EDGE_WEIGHT_TYPE : EUC_2D
NODE_COORD_SECTION
1 1734 1203 
2 714 927 
3 676 1053 
4 1691 1217 
5 1287 431 
6 1487 930 
7 677 1382 
8 1639 1196 
9 2050 1131 
10 784 1026 
11 763 1005 
12 1413 922 
13 965 1173 
14 714 897 
15 610 871 
16 1539 920 
17 1623 1072 
18 1374 399 
19 667 1013 
20 1563 844 
21 986 1852 
22 1652 349 
23 681 1329 
24 1458 981 
25 1638 1178 
26 1944 895 
27 683 941 
28 770 968 
29 1998 743 
30 1777 1090 
31 1252 343 
32 610 1315 
33 1376 964 
34 618 887 
35 1276 506 
36 1741 1098 
37 711 951 
38 604 1427 
39 992 1916 
40 510 1318 
41 792 949 
42 689 1427 
43 598 951 
44 1434 378 
45 570 1448 
46 628 903 
47 1459 812 
EOF
